100
120 120
1 96 925
2 96 217
3 96 814
4 95 312
5 95 894
6 94 444
7 94 33
8 93 369
9 91 470
10 90 751
11 88 890
12 87 466
13 87 826
14 85 155
15 85 819
16 85 385
17 84 502
18 84 303
19 83 311
20 81 805
21 79 130
22 79 694
23 79 357
24 78 400
25 78 484
26 74 911
27 74 537
28 74 852
29 70 354
30 70 900
31 70 707
32 69 158
33 69 40
34 68 700
35 66 797
36 63 368
37 62 571
38 61 682
39 60 23
40 60 483
41 60 883
42 59 87
43 58 466
44 56 483
45 55 624
46 54 369
47 54 514
48 54 926
49 52 684
50 51 281
51 50 588
52 50 27
53 50 615
54 50 804
55 49 170
56 48 489
57 47 83
58 47 458
59 47 402
60 46 489
61 46 120
62 45 754
63 43 533
64 42 312
65 41 498
66 40 563
67 40 555
68 39 598
69 39 256
70 39 733
71 37 186
72 36 495
73 36 487
74 35 65
75 34 313
76 33 247
77 33 106
78 32 279
79 31 78
80 29 509
81 28 804
82 26 451
83 25 537
84 24 738
85 23 63
86 22 694
87 21 972
88 20 359
89 20 387
90 19 609
91 19 905
92 19 579
93 19 341
94 18 374
95 18 763
96 17 464
97 16 55
98 15 795
99 14 60
100 12 766
